p cnf 107 834
c max 60 61 62 63 64 65 66 67 68 69 70 71 72 73 74 75 76 77 90 91 92 93 94 95 96 97 98 99 100 101 102 103 104 105 106 107 0
c ind 1 2 3 4 5 6 7 8 9 10 11 12 13 14 15 16 17 18 19 20 21 22 23 24 25 26 27 28 29 30 31 32 33 34 35 36 37 38 39 40 41 42 43 44 45 46 47 48 49 50 51 52 53 54 55 56 57 58 59 78 79 80 81 82 83 84 85 86 87 88 89 0
c p weight 9 -1 0
c p weight -9 1 0
c p weight 11 0.70710678118654752440084436210485 0
c p weight -11 1 0
c p weight 12 -1 0
c p weight -12 1 0
c p weight 14 0.70710678118654752440084436210485 0
c p weight -14 1 0
c p weight 15 -1 0
c p weight -15 1 0
c p weight 16 -1 0
c p weight -16 1 0
c p weight 19 -1 0
c p weight -19 1 0
c p weight 21 0.70710678118654752440084436210485 0
c p weight -21 1 0
c p weight 22 -1 0
c p weight -22 1 0
c p weight 24 0.70710678118654752440084436210485 0
c p weight -24 1 0
c p weight 25 -1 0
c p weight -25 1 0
c p weight 28 -1 0
c p weight -28 1 0
c p weight 30 0.70710678118654752440084436210485 0
c p weight -30 1 0
c p weight 31 -1 0
c p weight -31 1 0
c p weight 34 -1 0
c p weight -34 1 0
c p weight 36 0.70710678118654752440084436210485 0
c p weight -36 1 0
c p weight 37 -1 0
c p weight -37 1 0
c p weight 40 -1 0
c p weight -40 1 0
c p weight 42 0.70710678118654752440084436210485 0
c p weight -42 1 0
c p weight 43 -1 0
c p weight -43 1 0
c p weight 46 -1 0
c p weight -46 1 0
c p weight 47 -1 0
c p weight -47 1 0
c p weight 54 -1 0
c p weight 55 -1 0
c p weight 56 -1 0
c p weight -54 1 0
c p weight -55 1 0
c p weight -56 1 0
c p weight 57 0.70710678118654752440084436210485 0
c p weight 58 0.70710678118654752440084436210485 0
c p weight 59 0.70710678118654752440084436210485 0
c p weight -57 1 0
c p weight -58 1 0
c p weight -59 1 0
c p weight 84 -1 0
c p weight 85 -1 0
c p weight 86 -1 0
c p weight -84 1 0
c p weight -85 1 0
c p weight -86 1 0
c p weight 87 0.70710678118654752440084436210485 0
c p weight 88 0.70710678118654752440084436210485 0
c p weight 89 0.70710678118654752440084436210485 0
c p weight -87 1 0
c p weight -88 1 0
c p weight -89 1 0
7 1 -3 0
7 -1 3 0
-7 1 3 0
-7 -1 -3 0
8 2 -4 0
8 -2 4 0
-8 2 4 0
-8 -2 -4 0
-9 1 0
-9 4 0
-9 3 -2 0
-9 -3 2 0
9 -1 3 2 -4 0
9 -1 -3 -2 -4 0
10 7 -4 0
-10 7 4 0
11 -7 0
-11 7 0
-12 7 0
-12 4 0
-12 -10 0
12 10 -7 -4 0
13 1 -8 0
-13 1 8 0
14 -1 0
-14 1 0
-15 13 0
-15 1 0
-15 -8 0
15 -13 -1 8 0
-16 5 0
-16 6 0
16 -5 -6 0
17 1 -7 0
17 -1 7 0
-17 1 7 0
-17 -1 -7 0
18 13 -10 0
18 -13 10 0
-18 13 10 0
-18 -13 -10 0
-19 1 0
-19 10 0
-19 7 -13 0
-19 -7 13 0
19 -1 7 13 -10 0
19 -1 -7 -13 -10 0
20 6 -5 0
-20 6 5 0
21 -6 0
-21 6 0
-22 20 0
-22 6 0
-22 -5 0
22 -20 -6 5 0
23 17 -10 0
-23 17 10 0
24 -17 0
-24 17 0
-25 23 0
-25 17 0
-25 -10 0
25 -23 -17 10 0
26 1 -6 0
26 -1 6 0
-26 1 6 0
-26 -1 -6 0
27 18 -20 0
27 -18 20 0
-27 18 20 0
-27 -18 -20 0
-28 1 0
-28 20 0
-28 6 -18 0
-28 -6 18 0
28 -1 6 18 -20 0
28 -1 -6 -18 -20 0
29 26 -20 0
-29 26 20 0
30 -26 0
-30 26 0
-31 26 0
-31 20 0
-31 -29 0
31 29 -26 -20 0
32 17 -26 0
32 -17 26 0
-32 17 26 0
-32 -17 -26 0
33 23 -29 0
33 -23 29 0
-33 23 29 0
-33 -23 -29 0
-34 17 0
-34 29 0
-34 26 -23 0
-34 -26 23 0
34 -17 26 23 -29 0
34 -17 -26 -23 -29 0
35 32 -29 0
-35 32 29 0
36 -32 0
-36 32 0
-37 35 0
-37 32 0
-37 -29 0
37 -35 -32 29 0
38 1 -32 0
38 -1 32 0
-38 1 32 0
-38 -1 -32 0
39 27 -35 0
39 -27 35 0
-39 27 35 0
-39 -27 -35 0
-40 1 0
-40 35 0
-40 32 -27 0
-40 -32 27 0
40 -1 32 27 -35 0
40 -1 -32 -27 -35 0
41 38 -35 0
-41 38 35 0
42 -38 0
-42 38 0
-43 38 0
-43 35 0
-43 -41 0
43 41 -38 -35 0
44 17 -38 0
44 -17 38 0
-44 17 38 0
-44 -17 -38 0
45 33 -41 0
45 -33 41 0
-45 33 41 0
-45 -33 -41 0
-46 17 0
-46 41 0
-46 38 -33 0
-46 -38 33 0
46 -17 38 33 -41 0
46 -17 -38 -33 -41 0
-47 44 0
-47 41 0
47 -44 -41 0
-54 -60 0
48 -60 -1 0
-48 -60 1 0
51 -60 -39 0
-51 -60 39 0
-57 -60 0
-54 -63 1 0
-54 -63 39 0
54 -63 -1 -39 0
48 -63 -39 0
-48 -63 39 0
51 -63 -1 0
-51 -63 1 0
-57 -63 0
-54 51 -66 0
-54 -66 1 0
-54 -66 -39 0
54 -51 -66 -1 39 0
-54 -69 1 0
-54 -69 39 0
-54 -51 -69 0
54 51 -69 -1 -39 0
48 -66 -1 0
48 -69 -1 0
-48 -66 1 0
-48 -69 1 0
51 -66 1 -39 0
51 -69 1 -39 0
-51 -66 1 39 0
-51 -69 1 39 0
57 -66 -1 0
57 -69 -1 0
-57 -66 1 0
-57 -69 1 0
48 -72 -1 0
-48 -72 1 0
49 -72 1 -17 0
49 -72 -1 17 0
-49 -72 1 17 0
-49 -72 -1 -17 0
51 -72 39 -45 0
51 -72 -39 45 0
-51 -72 39 45 0
-51 -72 -39 -45 0
52 -72 -45 0
-52 -72 45 0
-54 -72 1 0
-54 -72 45 0
-54 -72 17 -39 0
-54 -72 -17 39 0
54 -72 -1 17 39 -45 0
54 -72 -1 -17 -39 -45 0
-55 -72 0
-57 -72 0
-58 -72 0
48 -73 -1 0
-48 -73 1 0
50 -73 1 -41 0
50 -73 -1 41 0
-50 -73 1 41 0
-50 -73 -1 -41 0
51 -73 39 -44 0
51 -73 -39 44 0
-51 -73 39 44 0
-51 -73 -39 -44 0
53 -73 -44 0
-53 -73 44 0
-54 -73 1 0
-54 -73 44 0
-54 -73 41 -39 0
-54 -73 -41 39 0
54 -73 -1 41 39 -44 0
54 -73 -1 -41 -39 -44 0
-56 -73 0
-57 -73 0
-59 -73 0
60 63 66 69 72 73 74 76 0
-60 -63 0
-60 -66 0
-60 -69 0
-60 -72 0
-60 -73 0
-60 -74 0
-60 -76 0
-63 -66 0
-63 -69 0
-63 -72 0
-63 -73 0
-63 -74 0
-63 -76 0
-66 -69 0
-66 -72 0
-66 -73 0
-66 -74 0
-66 -76 0
-69 -72 0
-69 -73 0
-69 -74 0
-69 -76 0
-72 -73 0
-72 -74 0
-72 -76 0
-73 -74 0
-73 -76 0
-74 -76 0
-55 -61 0
49 -61 -17 0
-49 -61 17 0
52 -61 -45 0
-52 -61 45 0
-58 -61 0
-55 -64 17 0
-55 -64 45 0
55 -64 -17 -45 0
49 -64 -45 0
-49 -64 45 0
52 -64 -17 0
-52 -64 17 0
-58 -64 0
-55 52 -67 0
-55 -67 17 0
-55 -67 -45 0
55 -52 -67 -17 45 0
-55 -70 17 0
-55 -70 45 0
-55 -52 -70 0
55 52 -70 -17 -45 0
49 -67 -17 0
49 -70 -17 0
-49 -67 17 0
-49 -70 17 0
52 -67 17 -45 0
52 -70 17 -45 0
-52 -67 17 45 0
-52 -70 17 45 0
58 -67 -17 0
58 -70 -17 0
-58 -67 17 0
-58 -70 17 0
49 -74 -17 0
-49 -74 17 0
48 -74 17 -1 0
48 -74 -17 1 0
-48 -74 17 1 0
-48 -74 -17 -1 0
52 -74 45 -39 0
52 -74 -45 39 0
-52 -74 45 39 0
-52 -74 -45 -39 0
51 -74 -39 0
-51 -74 39 0
-55 -74 17 0
-55 -74 39 0
-55 -74 1 -45 0
-55 -74 -1 45 0
55 -74 -17 1 45 -39 0
55 -74 -17 -1 -45 -39 0
-54 -74 0
-58 -74 0
-57 -74 0
49 -75 -17 0
-49 -75 17 0
50 -75 17 -41 0
50 -75 -17 41 0
-50 -75 17 41 0
-50 -75 -17 -41 0
52 -75 45 -44 0
52 -75 -45 44 0
-52 -75 45 44 0
-52 -75 -45 -44 0
53 -75 -44 0
-53 -75 44 0
-55 -75 17 0
-55 -75 44 0
-55 -75 41 -45 0
-55 -75 -41 45 0
55 -75 -17 41 45 -44 0
55 -75 -17 -41 -45 -44 0
-56 -75 0
-58 -75 0
-59 -75 0
61 64 67 70 74 75 72 77 0
-61 -64 0
-61 -67 0
-61 -70 0
-61 -74 0
-61 -75 0
-61 -72 0
-61 -77 0
-64 -67 0
-64 -70 0
-64 -74 0
-64 -75 0
-64 -72 0
-64 -77 0
-67 -70 0
-67 -74 0
-67 -75 0
-67 -72 0
-67 -77 0
-70 -74 0
-70 -75 0
-70 -72 0
-70 -77 0
-74 -75 0
-74 -72 0
-74 -77 0
-75 -72 0
-75 -77 0
-72 -77 0
-56 -62 0
50 -62 -41 0
-50 -62 41 0
53 -62 -44 0
-53 -62 44 0
-59 -62 0
-56 -65 41 0
-56 -65 44 0
56 -65 -41 -44 0
50 -65 -44 0
-50 -65 44 0
53 -65 -41 0
-53 -65 41 0
-59 -65 0
-56 53 -68 0
-56 -68 41 0
-56 -68 -44 0
56 -53 -68 -41 44 0
-56 -71 41 0
-56 -71 44 0
-56 -53 -71 0
56 53 -71 -41 -44 0
50 -68 -41 0
50 -71 -41 0
-50 -68 41 0
-50 -71 41 0
53 -68 41 -44 0
53 -71 41 -44 0
-53 -68 41 44 0
-53 -71 41 44 0
59 -68 -41 0
59 -71 -41 0
-59 -68 41 0
-59 -71 41 0
50 -76 -41 0
-50 -76 41 0
48 -76 41 -1 0
48 -76 -41 1 0
-48 -76 41 1 0
-48 -76 -41 -1 0
53 -76 44 -39 0
53 -76 -44 39 0
-53 -76 44 39 0
-53 -76 -44 -39 0
51 -76 -39 0
-51 -76 39 0
-56 -76 41 0
-56 -76 39 0
-56 -76 1 -44 0
-56 -76 -1 44 0
56 -76 -41 1 44 -39 0
56 -76 -41 -1 -44 -39 0
-54 -76 0
-59 -76 0
-57 -76 0
50 -77 -41 0
-50 -77 41 0
49 -77 41 -17 0
49 -77 -41 17 0
-49 -77 41 17 0
-49 -77 -41 -17 0
53 -77 44 -45 0
53 -77 -44 45 0
-53 -77 44 45 0
-53 -77 -44 -45 0
52 -77 -45 0
-52 -77 45 0
-56 -77 41 0
-56 -77 45 0
-56 -77 17 -44 0
-56 -77 -17 44 0
56 -77 -41 17 44 -45 0
56 -77 -41 -17 -44 -45 0
-55 -77 0
-59 -77 0
-58 -77 0
62 65 68 71 76 77 73 75 0
-62 -65 0
-62 -68 0
-62 -71 0
-62 -76 0
-62 -77 0
-62 -73 0
-62 -75 0
-65 -68 0
-65 -71 0
-65 -76 0
-65 -77 0
-65 -73 0
-65 -75 0
-68 -71 0
-68 -76 0
-68 -77 0
-68 -73 0
-68 -75 0
-71 -76 0
-71 -77 0
-71 -73 0
-71 -75 0
-76 -77 0
-76 -73 0
-76 -75 0
-77 -73 0
-77 -75 0
-73 -75 0
-84 -90 0
78 -90 -48 0
-78 -90 48 0
81 -90 -51 0
-81 -90 51 0
-87 -90 0
-84 -93 48 0
-84 -93 51 0
84 -93 -48 -51 0
78 -93 -51 0
-78 -93 51 0
81 -93 -48 0
-81 -93 48 0
-87 -93 0
-84 81 -96 0
-84 -96 48 0
-84 -96 -51 0
84 -81 -96 -48 51 0
-84 -99 48 0
-84 -99 51 0
-84 -81 -99 0
84 81 -99 -48 -51 0
78 -96 -48 0
78 -99 -48 0
-78 -96 48 0
-78 -99 48 0
81 -96 48 -51 0
81 -99 48 -51 0
-81 -96 48 51 0
-81 -99 48 51 0
87 -96 -48 0
87 -99 -48 0
-87 -96 48 0
-87 -99 48 0
78 -102 -48 0
-78 -102 48 0
79 -102 48 -49 0
79 -102 -48 49 0
-79 -102 48 49 0
-79 -102 -48 -49 0
81 -102 51 -52 0
81 -102 -51 52 0
-81 -102 51 52 0
-81 -102 -51 -52 0
82 -102 -52 0
-82 -102 52 0
-84 -102 48 0
-84 -102 52 0
-84 -102 49 -51 0
-84 -102 -49 51 0
84 -102 -48 49 51 -52 0
84 -102 -48 -49 -51 -52 0
-85 -102 0
-87 -102 0
-88 -102 0
78 -103 -48 0
-78 -103 48 0
80 -103 48 -50 0
80 -103 -48 50 0
-80 -103 48 50 0
-80 -103 -48 -50 0
81 -103 51 -53 0
81 -103 -51 53 0
-81 -103 51 53 0
-81 -103 -51 -53 0
83 -103 -53 0
-83 -103 53 0
-84 -103 48 0
-84 -103 53 0
-84 -103 50 -51 0
-84 -103 -50 51 0
84 -103 -48 50 51 -53 0
84 -103 -48 -50 -51 -53 0
-86 -103 0
-87 -103 0
-89 -103 0
90 93 96 99 102 103 104 106 0
-90 -93 0
-90 -96 0
-90 -99 0
-90 -102 0
-90 -103 0
-90 -104 0
-90 -106 0
-93 -96 0
-93 -99 0
-93 -102 0
-93 -103 0
-93 -104 0
-93 -106 0
-96 -99 0
-96 -102 0
-96 -103 0
-96 -104 0
-96 -106 0
-99 -102 0
-99 -103 0
-99 -104 0
-99 -106 0
-102 -103 0
-102 -104 0
-102 -106 0
-103 -104 0
-103 -106 0
-104 -106 0
-93 -63 0
-99 -66 0
-96 -69 0
-60 90 102 103 104 106 0
-60 90 102 103 104 106 0
-102 -72 0
-102 -60 -61 0
-60 90 102 103 104 106 0
-103 -73 0
-103 -60 -62 0
-85 -91 0
79 -91 -49 0
-79 -91 49 0
82 -91 -52 0
-82 -91 52 0
-88 -91 0
-85 -94 49 0
-85 -94 52 0
85 -94 -49 -52 0
79 -94 -52 0
-79 -94 52 0
82 -94 -49 0
-82 -94 49 0
-88 -94 0
-85 82 -97 0
-85 -97 49 0
-85 -97 -52 0
85 -82 -97 -49 52 0
-85 -100 49 0
-85 -100 52 0
-85 -82 -100 0
85 82 -100 -49 -52 0
79 -97 -49 0
79 -100 -49 0
-79 -97 49 0
-79 -100 49 0
82 -97 49 -52 0
82 -100 49 -52 0
-82 -97 49 52 0
-82 -100 49 52 0
88 -97 -49 0
88 -100 -49 0
-88 -97 49 0
-88 -100 49 0
79 -104 -49 0
-79 -104 49 0
78 -104 49 -48 0
78 -104 -49 48 0
-78 -104 49 48 0
-78 -104 -49 -48 0
82 -104 52 -51 0
82 -104 -52 51 0
-82 -104 52 51 0
-82 -104 -52 -51 0
81 -104 -51 0
-81 -104 51 0
-85 -104 49 0
-85 -104 51 0
-85 -104 48 -52 0
-85 -104 -48 52 0
85 -104 -49 48 52 -51 0
85 -104 -49 -48 -52 -51 0
-84 -104 0
-88 -104 0
-87 -104 0
79 -105 -49 0
-79 -105 49 0
80 -105 49 -50 0
80 -105 -49 50 0
-80 -105 49 50 0
-80 -105 -49 -50 0
82 -105 52 -53 0
82 -105 -52 53 0
-82 -105 52 53 0
-82 -105 -52 -53 0
83 -105 -53 0
-83 -105 53 0
-85 -105 49 0
-85 -105 53 0
-85 -105 50 -52 0
-85 -105 -50 52 0
85 -105 -49 50 52 -53 0
85 -105 -49 -50 -52 -53 0
-86 -105 0
-88 -105 0
-89 -105 0
91 94 97 100 104 105 102 107 0
-91 -94 0
-91 -97 0
-91 -100 0
-91 -104 0
-91 -105 0
-91 -102 0
-91 -107 0
-94 -97 0
-94 -100 0
-94 -104 0
-94 -105 0
-94 -102 0
-94 -107 0
-97 -100 0
-97 -104 0
-97 -105 0
-97 -102 0
-97 -107 0
-100 -104 0
-100 -105 0
-100 -102 0
-100 -107 0
-104 -105 0
-104 -102 0
-104 -107 0
-105 -102 0
-105 -107 0
-102 -107 0
-94 -64 0
-100 -67 0
-97 -70 0
-61 91 104 105 102 107 0
-104 -74 0
-104 -61 -60 0
-61 91 104 105 102 107 0
-61 91 104 105 102 107 0
-105 -75 0
-105 -61 -62 0
-86 -92 0
80 -92 -50 0
-80 -92 50 0
83 -92 -53 0
-83 -92 53 0
-89 -92 0
-86 -95 50 0
-86 -95 53 0
86 -95 -50 -53 0
80 -95 -53 0
-80 -95 53 0
83 -95 -50 0
-83 -95 50 0
-89 -95 0
-86 83 -98 0
-86 -98 50 0
-86 -98 -53 0
86 -83 -98 -50 53 0
-86 -101 50 0
-86 -101 53 0
-86 -83 -101 0
86 83 -101 -50 -53 0
80 -98 -50 0
80 -101 -50 0
-80 -98 50 0
-80 -101 50 0
83 -98 50 -53 0
83 -101 50 -53 0
-83 -98 50 53 0
-83 -101 50 53 0
89 -98 -50 0
89 -101 -50 0
-89 -98 50 0
-89 -101 50 0
80 -106 -50 0
-80 -106 50 0
78 -106 50 -48 0
78 -106 -50 48 0
-78 -106 50 48 0
-78 -106 -50 -48 0
83 -106 53 -51 0
83 -106 -53 51 0
-83 -106 53 51 0
-83 -106 -53 -51 0
81 -106 -51 0
-81 -106 51 0
-86 -106 50 0
-86 -106 51 0
-86 -106 48 -53 0
-86 -106 -48 53 0
86 -106 -50 48 53 -51 0
86 -106 -50 -48 -53 -51 0
-84 -106 0
-89 -106 0
-87 -106 0
80 -107 -50 0
-80 -107 50 0
79 -107 50 -49 0
79 -107 -50 49 0
-79 -107 50 49 0
-79 -107 -50 -49 0
83 -107 53 -52 0
83 -107 -53 52 0
-83 -107 53 52 0
-83 -107 -53 -52 0
82 -107 -52 0
-82 -107 52 0
-86 -107 50 0
-86 -107 52 0
-86 -107 49 -53 0
-86 -107 -49 53 0
86 -107 -50 49 53 -52 0
86 -107 -50 -49 -53 -52 0
-85 -107 0
-89 -107 0
-88 -107 0
92 95 98 101 106 107 103 105 0
-92 -95 0
-92 -98 0
-92 -101 0
-92 -106 0
-92 -107 0
-92 -103 0
-92 -105 0
-95 -98 0
-95 -101 0
-95 -106 0
-95 -107 0
-95 -103 0
-95 -105 0
-98 -101 0
-98 -106 0
-98 -107 0
-98 -103 0
-98 -105 0
-101 -106 0
-101 -107 0
-101 -103 0
-101 -105 0
-106 -107 0
-106 -103 0
-106 -105 0
-107 -103 0
-107 -105 0
-103 -105 0
-95 -65 0
-101 -68 0
-98 -71 0
-62 92 106 107 103 105 0
-106 -76 0
-106 -62 -60 0
-62 92 106 107 103 105 0
-107 -77 0
-107 -62 -61 0
-62 92 106 107 103 105 0
78 -1 0
-78 1 0
81 -2 0
-81 2 0
79 -3 0
-79 3 0
82 -4 0
-82 4 0
80 -5 0
-80 5 0
83 -6 0
-83 6 0
1 3 5 2 4 6 0
-1 -3 0
-1 -5 0
-1 -2 0
-1 -4 0
-1 -6 0
-3 -5 0
-3 -2 0
-3 -4 0
-3 -6 0
-5 -2 0
-5 -4 0
-5 -6 0
-2 -4 0
-2 -6 0
-4 -6 0
